This is Ipopt version 3.10.0, running with linear solver ma27.

Number of nonzeros in equality constraint Jacobian...:        0
Number of nonzeros in inequality constraint Jacobian.:       48
Number of nonzeros in Lagrangian Hessian.............:        0

Total number of variables............................:        6
                     variables with only lower bounds:        0
                variables with lower and upper bounds:        6
                     variables with only upper bounds:        0
Total number of equality constraints.................:        0
Total number of inequality constraints...............:        8
        inequality constraints with only lower bounds:        0
   inequality constraints with lower and upper bounds:        0
        inequality constraints with only upper bounds:        8

iter    objective    inf_pr   inf_du lg(mu)  ||d||  lg(rg) alpha_du alpha_pr  ls
   0  7.6646382e+00 2.35e+00 1.19e+00   0.0 0.00e+00    -  0.00e+00 0.00e+00   0
   1  9.2728883e+00 1.54e+00 1.04e+01  -0.5 1.51e+00    -  5.30e-01 4.79e-01f  1
   2  9.6704090e+00 7.34e-01 5.71e+00  -0.4 9.59e-01    -  9.58e-01 5.47e-01h  1
   3  1.1857354e+01 5.09e-01 1.66e+01  -0.4 1.03e+00    -  8.53e-01 5.13e-01h  1
   4  1.3894389e+01 1.67e-01 9.45e+00  -0.7 1.37e+00    -  6.77e-01 1.00e+00h  1
   5  1.4653258e+01 7.63e-02 3.35e+00  -1.2 6.74e-01    -  1.00e+00 6.79e-01h  1
   6  1.5101720e+01 4.34e-02 8.31e+00  -1.2 5.57e-01    -  8.92e-01 3.38e-01h  1
   7  1.5919768e+01 5.21e-03 2.42e+00  -2.3 1.73e-01    -  1.00e+00 9.19e-01h  1
   8  1.6036088e+01 0.00e+00 3.66e-01  -2.9 4.63e-02    -  1.00e+00 1.00e+00h  1
   9  1.5997021e+01 5.48e-04 7.74e-01  -3.9 5.93e-02    -  1.00e+00 1.00e+00h  1
iter    objective    inf_pr   inf_du lg(mu)  ||d||  lg(rg) alpha_du alpha_pr  ls
  10  1.5972264e+01 5.00e-04 1.60e-01  -5.4 2.92e-02    -  1.00e+00 1.00e+00h  1
  11  1.5961965e+01 3.20e-05 2.82e-02  -6.8 2.93e-03    -  1.00e+00 1.00e+00h  1
  12  1.5962722e+01 3.98e-05 2.10e-02  -8.4 1.27e-03    -  1.00e+00 1.00e+00h  1
  13  1.5963208e+01 0.00e+00 8.20e-03 -10.4 9.65e-04    -  1.00e+00 2.50e-01h  3
  14  1.5963002e+01 1.96e-04 1.63e-02 -10.6 3.46e-04    -  1.00e+00 1.00e+00h  1
  15  1.5962308e+01 2.54e-04 9.60e-03 -10.7 2.06e-03    -  1.00e+00 1.00e+00H  1
  16  1.5962756e+01 1.42e-04 1.47e-02 -10.7 2.20e-03    -  1.00e+00 1.00e+00H  1
  17  1.5963449e+01 8.15e-05 3.28e-02 -10.7 1.37e-03    -  1.00e+00 1.00e+00H  1
  18  1.5961345e+01 1.29e-04 1.36e-02 -10.7 1.04e-03    -  1.00e+00 1.00e+00h  1
